NAME : XML100_3355_20
DIMENSION : 101
NB_CLUSTERS : 8
CLUSTERING_ALG : KMeans
CLUSTERING_PARAMS : k(7)
CLUSTERS
1 0
2 8 12 13 16 20 23 25 27 32 34 38 40 42 44 49 55 63 65 67 73 75 79 82 99 100
3 1 7 9 14 15 17 18 19 29 35 37 41 46 48 52 53 58 60 69 71 74 77 81 85 87 95 96
4 2 33 54 59 62 64 66 76 78 90 92 94
5 3 6 21 30 31 51 68 70 80 84 89 98
6 4 24 39 45 57 86 88 97
7 10 22 43 47 72 91 93
8 5 11 26 28 36 50 56 61 83
EOF